solution status: optimal solution found
objective value:                      164128.14814257
d11(0,0)                                            1 	(obj:0)
d11(1,1)                                            1 	(obj:0)
d11(2,3)                                            1 	(obj:0)
d11(2,5)                                            1 	(obj:0)
d11(3,7)                                            1 	(obj:0)
d11(3,9)                                            1 	(obj:0)
d11(3,13)                                           1 	(obj:0)
d11(4,15)                                           1 	(obj:0)
d11(4,17)                                           1 	(obj:0)
d11(4,19)                                           1 	(obj:0)
d11(4,21)                                           1 	(obj:0)
d11(4,23)                                           1 	(obj:0)
d11(4,29)                                           1 	(obj:0)
d11(5,31)                                           1 	(obj:0)
d11(5,33)                                           1 	(obj:0)
d11(5,35)                                           1 	(obj:0)
d11(5,37)                                           1 	(obj:0)
d11(5,39)                                           1 	(obj:0)
d11(5,41)                                           1 	(obj:0)
d11(5,43)                                           1 	(obj:0)
d11(5,45)                                           1 	(obj:0)
d11(5,47)                                           1 	(obj:0)
d11(5,51)                                           1 	(obj:0)
d11(5,53)                                           1 	(obj:0)
d11(5,55)                                           1 	(obj:0)
d11(5,57)                                           1 	(obj:0)
d11(5,59)                                           1 	(obj:0)
d11(5,61)                                           1 	(obj:0)
d12(3,8)                                            1 	(obj:0)
d12(3,10)                                           1 	(obj:0)
d12(3,12)                                           1 	(obj:0)
d12(3,14)                                           1 	(obj:0)
d12(4,16)                                           1 	(obj:0)
d12(4,18)                                           1 	(obj:0)
d12(4,20)                                           1 	(obj:0)
d12(4,22)                                           1 	(obj:0)
d12(4,24)                                           1 	(obj:0)
d12(4,26)                                           1 	(obj:0)
d12(4,28)                                           1 	(obj:0)
d12(4,30)                                           1 	(obj:0)
d12(5,32)                                           1 	(obj:0)
d12(5,34)                                           1 	(obj:0)
d12(5,36)                                           1 	(obj:0)
d12(5,38)                                           1 	(obj:0)
d12(5,40)                                           1 	(obj:0)
d12(5,42)                                           1 	(obj:0)
d12(5,44)                                           1 	(obj:0)
d12(5,46)                                           1 	(obj:0)
d12(5,48)                                           1 	(obj:0)
d12(5,50)                                           1 	(obj:0)
d12(5,52)                                           1 	(obj:0)
d12(5,54)                                           1 	(obj:0)
d12(5,56)                                           1 	(obj:0)
d12(5,58)                                           1 	(obj:0)
d12(5,60)                                           1 	(obj:0)
d12(5,62)                                           1 	(obj:0)
y2(5,40)                             1385.48851144895 	(obj:0)
y2(5,42)                             1385.48851144895 	(obj:0)
y2(5,44)                             1385.48851144895 	(obj:0)
y2(5,46)                             1385.48851144895 	(obj:0)
y2(5,48)                             1385.48851144895 	(obj:0)
y2(5,50)                             1385.48851144895 	(obj:0)
y2(5,52)                             1385.48851144895 	(obj:0)
y2(5,54)                             1385.48851144895 	(obj:0)
y2(5,56)                             1385.48851144895 	(obj:0)
y2(5,58)                             1385.48851144895 	(obj:0)
y2(5,60)                             1385.48851144895 	(obj:0)
y2(5,62)                             1385.48851144895 	(obj:0)
STE(1,1)                             8484.75010111115 	(obj:0)
STE(0,0)                                        11025 	(obj:0)
STE(1,2)                                        10143 	(obj:0)
STE(2,3)                             5944.50020222226 	(obj:0)
STE(2,4)                             7602.75010111115 	(obj:0)
STE(2,5)                             7602.75010111111 	(obj:0)
STE(2,6)                                         9261 	(obj:0)
STE(3,7)                             5062.50020222226 	(obj:0)
STE(3,8)                             6378.71428809877 	(obj:0)
STE(3,9)                             6720.75010111115 	(obj:0)
STE(3,10)                            8036.96418698766 	(obj:0)
STE(3,11)                            6720.75010111111 	(obj:0)
STE(3,12)                            8036.96418698761 	(obj:0)
STE(3,13)                                        8379 	(obj:0)
STE(3,14)                            9695.21408587651 	(obj:0)
STE(4,15)                            4180.50020222226 	(obj:0)
STE(4,16)                            5496.71428809876 	(obj:0)
STE(4,17)                            5496.71428809877 	(obj:0)
STE(4,18)                            6812.92837397527 	(obj:0)
STE(4,19)                            5838.75010111115 	(obj:0)
STE(4,20)                            7154.96418698766 	(obj:0)
STE(4,21)                            7154.96418698766 	(obj:0)
STE(4,22)                            8471.17827286416 	(obj:0)
STE(4,23)                            5838.75010111111 	(obj:0)
STE(4,24)                            7154.96418698761 	(obj:0)
STE(4,25)                            7154.96418698761 	(obj:0)
STE(4,26)                            8471.17827286412 	(obj:0)
STE(4,27)                                        7497 	(obj:0)
STE(4,28)                            8813.21408587651 	(obj:0)
STE(4,29)                            8813.21408587651 	(obj:0)
STE(4,30)                             10129.428171753 	(obj:0)
STE(5,31)                            3298.50020222232 	(obj:0)
STE(5,32)                            4614.71428809876 	(obj:0)
STE(5,33)                            4614.71428809876 	(obj:0)
STE(5,34)                            5930.92837397527 	(obj:0)
STE(5,35)                            4614.71428809877 	(obj:0)
STE(5,36)                            5930.92837397527 	(obj:0)
STE(5,37)                            5930.92837397527 	(obj:0)
STE(5,38)                            7247.14245985178 	(obj:0)
STE(5,39)                            4956.75010111121 	(obj:0)
STE(5,40)                            6272.96418698766 	(obj:0)
STE(5,41)                            6272.96418698766 	(obj:0)
STE(5,42)                            7589.17827286416 	(obj:0)
STE(5,43)                            6272.96418698766 	(obj:0)
STE(5,44)                            7589.17827286416 	(obj:0)
STE(5,45)                            7589.17827286416 	(obj:0)
STE(5,46)                            8905.39235874067 	(obj:0)
STE(5,47)                            4956.75010111111 	(obj:0)
STE(5,48)                            6272.96418698761 	(obj:0)
STE(5,49)                            6272.96418698761 	(obj:0)
STE(5,50)                            7589.17827286412 	(obj:0)
STE(5,51)                            6272.96418698761 	(obj:0)
STE(5,52)                            7589.17827286412 	(obj:0)
STE(5,53)                            7589.17827286412 	(obj:0)
STE(5,54)                            8905.39235874062 	(obj:0)
STE(5,55)                                        6615 	(obj:0)
STE(5,56)                            7931.21408587651 	(obj:0)
STE(5,57)                            7931.21408587651 	(obj:0)
STE(5,58)                            9247.42817175301 	(obj:0)
STE(5,59)                            7931.21408587651 	(obj:0)
STE(5,60)                            9247.42817175301 	(obj:0)
STE(5,61)                            9247.42817175301 	(obj:0)
STE(5,62)                            10563.6422576295 	(obj:0)
AVE(1)                                   3216.9117036 	(obj:0)
AVE(2)                                   3366.1541945 	(obj:0)
WB(3)                                 841.98674662449 	(obj:0)
AVE(3)                                   3515.3966854 	(obj:0)
WB(4)                                3515.39406545826 	(obj:0)
AVE(4)                               3515.39406545826 	(obj:0)
WB(5)                                3167.15385943327 	(obj:0)
AVE(5)                               3167.15385943327 	(obj:0)
WG(1)                                    3216.9117036 	(obj:10)
WG(2)                                    3366.1541945 	(obj:10)
WG(3)                                2673.40993877551 	(obj:10)
BG(1)                                979.380795379592 	(obj:10)
BG(2)                                830.138304479591 	(obj:10)
BG(4)                                2673.40993877551 	(obj:10)
BG(5)                                2673.40993877551 	(obj:10)
y1(1,1)                              1492.42490899996 	(obj:0)
y1(2,3)                              1492.42490900001 	(obj:0)
y1(2,5)                              1492.42490900001 	(obj:0)
y2(3,8)                              1385.48851144896 	(obj:0)
y2(3,10)                             1385.48851144895 	(obj:0)
y2(3,12)                             1385.48851144895 	(obj:0)
y2(3,14)                             1385.48851144895 	(obj:0)
y2(4,16)                             1385.48851144895 	(obj:0)
y2(4,18)                             1385.48851144895 	(obj:0)
y2(4,20)                             1385.48851144895 	(obj:0)
y2(4,22)                             1385.48851144895 	(obj:0)
y2(4,24)                             1385.48851144895 	(obj:0)
y2(4,26)                             1385.48851144895 	(obj:0)
y2(4,28)                             1385.48851144895 	(obj:0)
y2(4,30)                             1385.48851144895 	(obj:0)
y2(5,32)                             1385.48851144895 	(obj:0)
y2(5,34)                             1385.48851144895 	(obj:0)
y2(5,36)                             1385.48851144895 	(obj:0)
y2(5,38)                             1385.48851144895 	(obj:0)
